Route #1: 1 33 18 26 29 10 38 9 30 7 24 1
Route #2: 1 23 13 3 11 20 36 15 39 35 6 1
Route #3: 1 34 19 5 27 25 21 1
Route #4: 1 12 17 2 37 32 28 8 1
Route #5: 1 4 16 31 22 1
Route #6: 1 14 1
cost 2123.9935913084773